
Gurobi 10.0.1 (linux64) logging started Sun Nov 26 16:19:08 2023

Set parameter LogFile to value "ArtificialInstance/ExperimentV2/S4T3K3/AdRo/gurobiDoRo50.txt"
Gurobi Optimizer version 10.0.1 build v10.0.1rc0 (linux64)

CPU model: AMD EPYC 7H12 64-Core Processor, instruction set [SSE2|AVX|AVX2]
Thread count: 128 physical cores, 128 logical processors, using up to 32 threads

Academic license 656792 - for non-commercial use only - registered to b.___@student.vu.nl
Optimize a model with 16154 rows, 15631 columns and 60474 nonzeros
Model fingerprint: 0xa3919f29
Variable types: 1 continuous, 15630 integer (15630 binary)
Coefficient statistics:
  Matrix range     [1e+00, 4e+01]
  Objective range  [1e+00, 2e+01]
  Bounds range     [1e+00, 1e+00]
  RHS range        [1e+00, 1e+00]
Presolve removed 6380 rows and 6144 columns
Presolve time: 0.24s
Presolved: 9774 rows, 9487 columns, 36549 nonzeros
Variable types: 1 continuous, 9486 integer (9486 binary)

Root relaxation: objective 8.323501e+01, 3118 iterations, 0.15 seconds (0.10 work units)

    Nodes    |    Current Node    |     Objective Bounds      |     Work
 Expl Unexpl |  Obj  Depth IntInf | Incumbent    BestBd   Gap | It/Node Time

     0     0   83.23501    0   12          -   83.23501      -     -    0s
H    0     0                      83.2350082   83.23501  0.00%     -    0s

Explored 1 nodes (5171 simplex iterations) in 0.57 seconds (0.38 work units)
Thread count was 32 (of 128 available processors)

Solution count 1: 83.235 

Optimal solution found (tolerance 1.00e-04)
Best objective 8.323500821441e+01, best bound 8.323500821441e+01, gap 0.0000%
